g3 0 1 0	# problem mancino
 10 0 1 0 0	# vars, constraints, objectives, ranges, eqns
 0 1	# nonlinear constraints, objectives
 0 0	# network constraints: nonlinear, linear
 0 10 0	# nonlinear vars in constraints, objectives, both
 0 0 0 1	# linear network variables; functions; arith, flags
 0 0 0 0 0	# discrete variables: binary, integer, nonlinear (b,c,o)
 0 10	# nonzeros in Jacobian, gradients
 0 0	# max name lengths: constraints, variables
 0 0 0 0 110	# common exprs: b,c,o,c1,o1
V10 0 1
o39
o0
n1
o5
v0
n2
V11 0 1
o39
o0
n0.5
o5
v0
n2
V12 0 1
o39
o0
n0.3333333333333333
o5
v0
n2
V13 0 1
o39
o0
n0.25
o5
v0
n2
V14 0 1
o39
o0
n0.2
o5
v0
n2
V15 0 1
o39
o0
n0.16666666666666666
o5
v0
n2
V16 0 1
o39
o0
n0.14285714285714285
o5
v0
n2
V17 0 1
o39
o0
n0.125
o5
v0
n2
V18 0 1
o39
o0
n0.1111111111111111
o5
v0
n2
V19 0 1
o39
o0
n0.1
o5
v0
n2
V20 0 1
o39
o0
n2
o5
v1
n2
V21 0 1
o39
o0
n1
o5
v1
n2
V22 0 1
o39
o0
n0.6666666666666666
o5
v1
n2
V23 0 1
o39
o0
n0.5
o5
v1
n2
V24 0 1
o39
o0
n0.4
o5
v1
n2
V25 0 1
o39
o0
n0.3333333333333333
o5
v1
n2
V26 0 1
o39
o0
n0.2857142857142857
o5
v1
n2
V27 0 1
o39
o0
n0.25
o5
v1
n2
V28 0 1
o39
o0
n0.2222222222222222
o5
v1
n2
V29 0 1
o39
o0
n0.2
o5
v1
n2
V30 0 1
o39
o0
n3
o5
v2
n2
V31 0 1
o39
o0
n1.5
o5
v2
n2
V32 0 1
o39
o0
n1
o5
v2
n2
V33 0 1
o39
o0
n0.75
o5
v2
n2
V34 0 1
o39
o0
n0.6
o5
v2
n2
V35 0 1
o39
o0
n0.5
o5
v2
n2
V36 0 1
o39
o0
n0.42857142857142855
o5
v2
n2
V37 0 1
o39
o0
n0.375
o5
v2
n2
V38 0 1
o39
o0
n0.3333333333333333
o5
v2
n2
V39 0 1
o39
o0
n0.3
o5
v2
n2
V40 0 1
o39
o0
n4
o5
v3
n2
V41 0 1
o39
o0
n2
o5
v3
n2
V42 0 1
o39
o0
n1.3333333333333333
o5
v3
n2
V43 0 1
o39
o0
n1
o5
v3
n2
V44 0 1
o39
o0
n0.8
o5
v3
n2
V45 0 1
o39
o0
n0.6666666666666666
o5
v3
n2
V46 0 1
o39
o0
n0.5714285714285714
o5
v3
n2
V47 0 1
o39
o0
n0.5
o5
v3
n2
V48 0 1
o39
o0
n0.4444444444444444
o5
v3
n2
V49 0 1
o39
o0
n0.4
o5
v3
n2
V50 0 1
o39
o0
n5
o5
v4
n2
V51 0 1
o39
o0
n2.5
o5
v4
n2
V52 0 1
o39
o0
n1.6666666666666667
o5
v4
n2
V53 0 1
o39
o0
n1.25
o5
v4
n2
V54 0 1
o39
o0
n1
o5
v4
n2
V55 0 1
o39
o0
n0.8333333333333334
o5
v4
n2
V56 0 1
o39
o0
n0.7142857142857143
o5
v4
n2
V57 0 1
o39
o0
n0.625
o5
v4
n2
V58 0 1
o39
o0
n0.5555555555555556
o5
v4
n2
V59 0 1
o39
o0
n0.5
o5
v4
n2
V60 0 1
o39
o0
n6
o5
v5
n2
V61 0 1
o39
o0
n3
o5
v5
n2
V62 0 1
o39
o0
n2
o5
v5
n2
V63 0 1
o39
o0
n1.5
o5
v5
n2
V64 0 1
o39
o0
n1.2
o5
v5
n2
V65 0 1
o39
o0
n1
o5
v5
n2
V66 0 1
o39
o0
n0.8571428571428571
o5
v5
n2
V67 0 1
o39
o0
n0.75
o5
v5
n2
V68 0 1
o39
o0
n0.6666666666666666
o5
v5
n2
V69 0 1
o39
o0
n0.6
o5
v5
n2
V70 0 1
o39
o0
n7
o5
v6
n2
V71 0 1
o39
o0
n3.5
o5
v6
n2
V72 0 1
o39
o0
n2.3333333333333335
o5
v6
n2
V73 0 1
o39
o0
n1.75
o5
v6
n2
V74 0 1
o39
o0
n1.4
o5
v6
n2
V75 0 1
o39
o0
n1.1666666666666667
o5
v6
n2
V76 0 1
o39
o0
n1
o5
v6
n2
V77 0 1
o39
o0
n0.875
o5
v6
n2
V78 0 1
o39
o0
n0.7777777777777778
o5
v6
n2
V79 0 1
o39
o0
n0.7
o5
v6
n2
V80 0 1
o39
o0
n8
o5
v7
n2
V81 0 1
o39
o0
n4
o5
v7
n2
V82 0 1
o39
o0
n2.6666666666666665
o5
v7
n2
V83 0 1
o39
o0
n2
o5
v7
n2
V84 0 1
o39
o0
n1.6
o5
v7
n2
V85 0 1
o39
o0
n1.3333333333333333
o5
v7
n2
V86 0 1
o39
o0
n1.1428571428571428
o5
v7
n2
V87 0 1
o39
o0
n1
o5
v7
n2
V88 0 1
o39
o0
n0.8888888888888888
o5
v7
n2
V89 0 1
o39
o0
n0.8
o5
v7
n2
V90 0 1
o39
o0
n9
o5
v8
n2
V91 0 1
o39
o0
n4.5
o5
v8
n2
V92 0 1
o39
o0
n3
o5
v8
n2
V93 0 1
o39
o0
n2.25
o5
v8
n2
V94 0 1
o39
o0
n1.8
o5
v8
n2
V95 0 1
o39
o0
n1.5
o5
v8
n2
V96 0 1
o39
o0
n1.2857142857142858
o5
v8
n2
V97 0 1
o39
o0
n1.125
o5
v8
n2
V98 0 1
o39
o0
n1
o5
v8
n2
V99 0 1
o39
o0
n0.9
o5
v8
n2
V100 0 1
o39
o0
n10
o5
v9
n2
V101 0 1
o39
o0
n5
o5
v9
n2
V102 0 1
o39
o0
n3.3333333333333335
o5
v9
n2
V103 0 1
o39
o0
n2.5
o5
v9
n2
V104 0 1
o39
o0
n2
o5
v9
n2
V105 0 1
o39
o0
n1.6666666666666667
o5
v9
n2
V106 0 1
o39
o0
n1.4285714285714286
o5
v9
n2
V107 0 1
o39
o0
n1.25
o5
v9
n2
V108 0 1
o39
o0
n1.1111111111111112
o5
v9
n2
V109 0 1
o39
o0
n1
o5
v9
n2
V110 1 1
0 1400
o54
11
o2
v10
o0
o5
o41
o43
v10
n5
o5
o46
o43
v10
n5
o2
v11
o0
o5
o41
o43
v11
n5
o5
o46
o43
v11
n5
o2
v12
o0
o5
o41
o43
v12
n5
o5
o46
o43
v12
n5
o2
v13
o0
o5
o41
o43
v13
n5
o5
o46
o43
v13
n5
o2
v14
o0
o5
o41
o43
v14
n5
o5
o46
o43
v14
n5
o2
v15
o0
o5
o41
o43
v15
n5
o5
o46
o43
v15
n5
o2
v16
o0
o5
o41
o43
v16
n5
o5
o46
o43
v16
n5
o2
v17
o0
o5
o41
o43
v17
n5
o5
o46
o43
v17
n5
o2
v18
o0
o5
o41
o43
v18
n5
o5
o46
o43
v18
n5
o2
v19
o0
o5
o41
o43
v19
n5
o5
o46
o43
v19
n5
n-117649
V111 1 1
1 1400
o54
11
o2
v20
o0
o5
o41
o43
v20
n5
o5
o46
o43
v20
n5
o2
v21
o0
o5
o41
o43
v21
n5
o5
o46
o43
v21
n5
o2
v22
o0
o5
o41
o43
v22
n5
o5
o46
o43
v22
n5
o2
v23
o0
o5
o41
o43
v23
n5
o5
o46
o43
v23
n5
o2
v24
o0
o5
o41
o43
v24
n5
o5
o46
o43
v24
n5
o2
v25
o0
o5
o41
o43
v25
n5
o5
o46
o43
v25
n5
o2
v26
o0
o5
o41
o43
v26
n5
o5
o46
o43
v26
n5
o2
v27
o0
o5
o41
o43
v27
n5
o5
o46
o43
v27
n5
o2
v28
o0
o5
o41
o43
v28
n5
o5
o46
o43
v28
n5
o2
v29
o0
o5
o41
o43
v29
n5
o5
o46
o43
v29
n5
n-110592
V112 1 1
2 1400
o54
11
o2
v30
o0
o5
o41
o43
v30
n5
o5
o46
o43
v30
n5
o2
v31
o0
o5
o41
o43
v31
n5
o5
o46
o43
v31
n5
o2
v32
o0
o5
o41
o43
v32
n5
o5
o46
o43
v32
n5
o2
v33
o0
o5
o41
o43
v33
n5
o5
o46
o43
v33
n5
o2
v34
o0
o5
o41
o43
v34
n5
o5
o46
o43
v34
n5
o2
v35
o0
o5
o41
o43
v35
n5
o5
o46
o43
v35
n5
o2
v36
o0
o5
o41
o43
v36
n5
o5
o46
o43
v36
n5
o2
v37
o0
o5
o41
o43
v37
n5
o5
o46
o43
v37
n5
o2
v38
o0
o5
o41
o43
v38
n5
o5
o46
o43
v38
n5
o2
v39
o0
o5
o41
o43
v39
n5
o5
o46
o43
v39
n5
n-103823
V113 1 1
3 1400
o54
11
o2
v40
o0
o5
o41
o43
v40
n5
o5
o46
o43
v40
n5
o2
v41
o0
o5
o41
o43
v41
n5
o5
o46
o43
v41
n5
o2
v42
o0
o5
o41
o43
v42
n5
o5
o46
o43
v42
n5
o2
v43
o0
o5
o41
o43
v43
n5
o5
o46
o43
v43
n5
o2
v44
o0
o5
o41
o43
v44
n5
o5
o46
o43
v44
n5
o2
v45
o0
o5
o41
o43
v45
n5
o5
o46
o43
v45
n5
o2
v46
o0
o5
o41
o43
v46
n5
o5
o46
o43
v46
n5
o2
v47
o0
o5
o41
o43
v47
n5
o5
o46
o43
v47
n5
o2
v48
o0
o5
o41
o43
v48
n5
o5
o46
o43
v48
n5
o2
v49
o0
o5
o41
o43
v49
n5
o5
o46
o43
v49
n5
n-97336
V114 1 1
4 1400
o54
11
o2
v50
o0
o5
o41
o43
v50
n5
o5
o46
o43
v50
n5
o2
v51
o0
o5
o41
o43
v51
n5
o5
o46
o43
v51
n5
o2
v52
o0
o5
o41
o43
v52
n5
o5
o46
o43
v52
n5
o2
v53
o0
o5
o41
o43
v53
n5
o5
o46
o43
v53
n5
o2
v54
o0
o5
o41
o43
v54
n5
o5
o46
o43
v54
n5
o2
v55
o0
o5
o41
o43
v55
n5
o5
o46
o43
v55
n5
o2
v56
o0
o5
o41
o43
v56
n5
o5
o46
o43
v56
n5
o2
v57
o0
o5
o41
o43
v57
n5
o5
o46
o43
v57
n5
o2
v58
o0
o5
o41
o43
v58
n5
o5
o46
o43
v58
n5
o2
v59
o0
o5
o41
o43
v59
n5
o5
o46
o43
v59
n5
n-91125
V115 1 1
5 1400
o54
11
o2
v60
o0
o5
o41
o43
v60
n5
o5
o46
o43
v60
n5
o2
v61
o0
o5
o41
o43
v61
n5
o5
o46
o43
v61
n5
o2
v62
o0
o5
o41
o43
v62
n5
o5
o46
o43
v62
n5
o2
v63
o0
o5
o41
o43
v63
n5
o5
o46
o43
v63
n5
o2
v64
o0
o5
o41
o43
v64
n5
o5
o46
o43
v64
n5
o2
v65
o0
o5
o41
o43
v65
n5
o5
o46
o43
v65
n5
o2
v66
o0
o5
o41
o43
v66
n5
o5
o46
o43
v66
n5
o2
v67
o0
o5
o41
o43
v67
n5
o5
o46
o43
v67
n5
o2
v68
o0
o5
o41
o43
v68
n5
o5
o46
o43
v68
n5
o2
v69
o0
o5
o41
o43
v69
n5
o5
o46
o43
v69
n5
n-85184
V116 1 1
6 1400
o54
11
o2
v70
o0
o5
o41
o43
v70
n5
o5
o46
o43
v70
n5
o2
v71
o0
o5
o41
o43
v71
n5
o5
o46
o43
v71
n5
o2
v72
o0
o5
o41
o43
v72
n5
o5
o46
o43
v72
n5
o2
v73
o0
o5
o41
o43
v73
n5
o5
o46
o43
v73
n5
o2
v74
o0
o5
o41
o43
v74
n5
o5
o46
o43
v74
n5
o2
v75
o0
o5
o41
o43
v75
n5
o5
o46
o43
v75
n5
o2
v76
o0
o5
o41
o43
v76
n5
o5
o46
o43
v76
n5
o2
v77
o0
o5
o41
o43
v77
n5
o5
o46
o43
v77
n5
o2
v78
o0
o5
o41
o43
v78
n5
o5
o46
o43
v78
n5
o2
v79
o0
o5
o41
o43
v79
n5
o5
o46
o43
v79
n5
n-79507
V117 1 1
7 1400
o54
11
o2
v80
o0
o5
o41
o43
v80
n5
o5
o46
o43
v80
n5
o2
v81
o0
o5
o41
o43
v81
n5
o5
o46
o43
v81
n5
o2
v82
o0
o5
o41
o43
v82
n5
o5
o46
o43
v82
n5
o2
v83
o0
o5
o41
o43
v83
n5
o5
o46
o43
v83
n5
o2
v84
o0
o5
o41
o43
v84
n5
o5
o46
o43
v84
n5
o2
v85
o0
o5
o41
o43
v85
n5
o5
o46
o43
v85
n5
o2
v86
o0
o5
o41
o43
v86
n5
o5
o46
o43
v86
n5
o2
v87
o0
o5
o41
o43
v87
n5
o5
o46
o43
v87
n5
o2
v88
o0
o5
o41
o43
v88
n5
o5
o46
o43
v88
n5
o2
v89
o0
o5
o41
o43
v89
n5
o5
o46
o43
v89
n5
n-74088
V118 1 1
8 1400
o54
11
o2
v90
o0
o5
o41
o43
v90
n5
o5
o46
o43
v90
n5
o2
v91
o0
o5
o41
o43
v91
n5
o5
o46
o43
v91
n5
o2
v92
o0
o5
o41
o43
v92
n5
o5
o46
o43
v92
n5
o2
v93
o0
o5
o41
o43
v93
n5
o5
o46
o43
v93
n5
o2
v94
o0
o5
o41
o43
v94
n5
o5
o46
o43
v94
n5
o2
v95
o0
o5
o41
o43
v95
n5
o5
o46
o43
v95
n5
o2
v96
o0
o5
o41
o43
v96
n5
o5
o46
o43
v96
n5
o2
v97
o0
o5
o41
o43
v97
n5
o5
o46
o43
v97
n5
o2
v98
o0
o5
o41
o43
v98
n5
o5
o46
o43
v98
n5
o2
v99
o0
o5
o41
o43
v99
n5
o5
o46
o43
v99
n5
n-68921
V119 1 1
9 1400
o54
11
o2
v100
o0
o5
o41
o43
v100
n5
o5
o46
o43
v100
n5
o2
v101
o0
o5
o41
o43
v101
n5
o5
o46
o43
v101
n5
o2
v102
o0
o5
o41
o43
v102
n5
o5
o46
o43
v102
n5
o2
v103
o0
o5
o41
o43
v103
n5
o5
o46
o43
v103
n5
o2
v104
o0
o5
o41
o43
v104
n5
o5
o46
o43
v104
n5
o2
v105
o0
o5
o41
o43
v105
n5
o5
o46
o43
v105
n5
o2
v106
o0
o5
o41
o43
v106
n5
o5
o46
o43
v106
n5
o2
v107
o0
o5
o41
o43
v107
n5
o5
o46
o43
v107
n5
o2
v108
o0
o5
o41
o43
v108
n5
o5
o46
o43
v108
n5
o2
v109
o0
o5
o41
o43
v109
n5
o5
o46
o43
v109
n5
n-64000
O0 0
o54
10
o5
v110
n2
o5
v111
n2
o5
v112
n2
o5
v113
n2
o5
v114
n2
o5
v115
n2
o5
v116
n2
o5
v117
n2
o5
v118
n2
o5
v119
n2
x10
0 102.48305330899343
1 96.33304194392744
2 90.43487658678507
3 84.78288623613642
4 79.37163415551522
5 74.19578290663841
6 69.25003968094033
7 64.52913501906363
8 60.027813164231645
9 55.74082705915974
b
3
3
3
3
3
3
3
3
3
3
k9
0
0
0
0
0
0
0
0
0
G0 10
0 0
1 0
2 0
3 0
4 0
5 0
6 0
7 0
8 0
9 0
